Version identifier: 20.1.0.0 | 2020-11-10 | 9bedb6d68
Tried aggregator 2 times.
MIP Presolve eliminated 1730 rows and 967 columns.
MIP Presolve modified 3328 coefficients.
Aggregator did 146 substitutions.
Reduced MIP has 1330 rows, 1094 columns, and 4157 nonzeros.
Reduced MIP has 252 binaries, 842 generals, 0 SOSs, and 0 indicators.
Presolve time = 0.02 sec. (7.06 ticks)
Found incumbent of value 1049.000000 after 0.03 sec. (10.81 ticks)
Probing fixed 40 vars, tightened 371 bounds.
Probing time = 0.00 sec. (1.55 ticks)
Tried aggregator 2 times.
MIP Presolve eliminated 558 rows and 110 columns.
MIP Presolve modified 129 coefficients.
Aggregator did 39 substitutions.
Reduced MIP has 733 rows, 945 columns, and 2286 nonzeros.
Reduced MIP has 405 binaries, 540 generals, 0 SOSs, and 0 indicators.
Presolve time = 0.01 sec. (3.25 ticks)
Probing time = 0.00 sec. (0.24 ticks)
Tried aggregator 1 time.
Detecting symmetries...
MIP Presolve modified 234 coefficients.
Reduced MIP has 733 rows, 945 columns, and 2286 nonzeros.
Reduced MIP has 405 binaries, 540 generals, 0 SOSs, and 0 indicators.
Presolve time = 0.00 sec. (1.97 ticks)
Probing time = 0.00 sec. (0.22 ticks)
Clique table members: 140.
MIP emphasis: balance optimality and feasibility.
MIP search method: dynamic search.
Parallel mode: deterministic, using up to 24 threads.
Root relaxation solution time = 0.00 sec. (2.73 ticks)

        Nodes                                         Cuts/
   Node  Left     Objective  IInf  Best Integer    Best Bound    ItCnt     Gap

*     0+    0                         1049.0000        0.0000           100.00%
*     0+    0                           14.0000        0.0000           100.00%
      0     0        1.0000   230       14.0000        1.0000      238   92.86%
*     0+    0                            7.0000        1.0000            85.71%
      0     0        1.0714   152        7.0000      Cuts: 32      424   84.69%
      0     0        2.0000   133        7.0000      Cuts: 80      529   71.43%
      0     0        2.0000   118        7.0000      Cuts: 35      568   71.43%
      0     0        2.0000   124        7.0000      Cuts: 36      628   71.43%
      0     0        2.0000   107        7.0000      Cuts: 10      660   71.43%
      0     0        2.0000   127        7.0000      Cuts: 37      696   71.43%
*     0+    0                            6.0000        2.0000            66.67%
*     0+    0                            5.0000        2.0000            60.00%
      0     0        cutoff              5.0000        5.0000      696    0.00%
Elapsed time = 0.25 sec. (98.39 ticks, tree = 0.01 MB, solutions = 5)

Clique cuts applied:  4
Implied bound cuts applied:  5
Mixed integer rounding cuts applied:  5
Zero-half cuts applied:  23
Gomory fractional cuts applied:  2

Root node processing (before b&c):
  Real time             =    0.25 sec. (98.53 ticks)
Parallel b&c, 24 threads:
  Real time             =    0.00 sec. (0.00 ticks)
  Sync time (average)   =    0.00 sec.
  Wait time (average)   =    0.00 sec.
                          ------------
Total (root+branch&cut) =    0.25 sec. (98.53 ticks)

Solution status = Optimal
Solution LB = 5
Solution UB = 5
Runtime = 0.254426 seconds
	Command being timed: "/home/min/git_repos/CS598MEBProject/CNT-ILP/build/cnt -s 2 ./output/k6_n40/simC_c1_k6_n40_u1_s3_del04.input-left.cnp"
	User time (seconds): 2.77
	System time (seconds): 0.07
	Percent of CPU this job got: 1033%
	Elapsed (wall clock) time (h:mm:ss or m:ss): 0:00.27
	Average shared text size (kbytes): 0
	Average unshared data size (kbytes): 0
	Average stack size (kbytes): 0
	Average total size (kbytes): 0
	Maximum resident set size (kbytes): 73628
	Average resident set size (kbytes): 0
	Major (requiring I/O) page faults: 0
	Minor (reclaiming a frame) page faults: 15459
	Voluntary context switches: 3879
	Involuntary context switches: 336
	Swaps: 0
	File system inputs: 0
	File system outputs: 16
	Socket messages sent: 0
	Socket messages received: 0
	Signals delivered: 0
	Page size (bytes): 4096
	Exit status: 0
